304
340
353
373
365
326
429
338
476
453
430
421
494
442
466
625
489
278
354
290
269
298
816
821
651
683
750
541
531
790
484
630
1218
1236
1313
1120
1342
804
832
801
791
726
887
1142
951
921
846
1044
816
906
950
957
5358
5596
5400
6229
6232
3195
3639
2912
2991
2963
